
Gurobi 9.1.2 (mac64, gurobi_cl) logging started Fri Oct 15 04:40:26 2021

Academic license - for non-commercial use only - expires 2022-10-03
Using license file /Users/yiduoke/gurobi.lic
Set parameter LogFile to value gurobi.log

Gurobi 9.1.2 (mac64, Python) logging started Fri Oct 15 04:43:58 2021

Academic license - for non-commercial use only - expires 2022-10-03
Using license file /Users/yiduoke/gurobi.lic
Set parameter LogFile to value gurobi.log
Gurobi Optimizer version 9.1.2 build v9.1.2rc0 (mac64)
Thread count: 2 physical cores, 4 logical processors, using up to 4 threads
Optimize a model with 2 rows, 5 columns and 8 nonzeros
Model fingerprint: 0x7d44349f
Coefficient statistics:
  Matrix range     [1e+00, 3e+00]
  Objective range  [1e+01, 3e+01]
  Bounds range     [0e+00, 0e+00]
  RHS range        [1e+01, 2e+01]
Presolve removed 0 rows and 3 columns
Presolve time: 0.02s
Presolved: 2 rows, 2 columns, 4 nonzeros

Iteration    Objective       Primal Inf.    Dual Inf.      Time
       0    0.0000000e+00   1.650000e+01   0.000000e+00      0s
       2    1.3100000e+02   0.000000e+00   0.000000e+00      0s

Solved in 2 iterations and 0.04 seconds
Optimal objective  1.310000000e+02
